(set-option :produce-models true)
(set-logic QF_LRA)
(set-info :notes | Strip-packing problem.|)
(declare-fun x0 () Real)
(declare-fun y0 () Real)
(declare-fun x1 () Real)
(declare-fun y1 () Real)
(declare-fun x2 () Real)
(declare-fun y2 () Real)
(declare-fun x3 () Real)
(declare-fun y3 () Real)
(declare-fun x4 () Real)
(declare-fun y4 () Real)
(declare-fun x5 () Real)
(declare-fun y5 () Real)
(declare-fun x6 () Real)
(declare-fun y6 () Real)
(declare-fun x7 () Real)
(declare-fun y7 () Real)
(declare-fun x8 () Real)
(declare-fun y8 () Real)
(declare-fun x9 () Real)
(declare-fun y9 () Real)
(declare-fun x10 () Real)
(declare-fun y10 () Real)
(declare-fun x11 () Real)
(declare-fun y11 () Real)
(declare-fun x12 () Real)
(declare-fun y12 () Real)
(declare-fun x13 () Real)
(declare-fun y13 () Real)
(declare-fun x14 () Real)
(declare-fun y14 () Real)
(declare-fun z () Real)
(declare-fun c () Real)
(assert (and (= c z) (and (>= x0 0) 
(and (>= y0 0) 
(and (>= x1 0) 
(and (>= y1 0) 
(and (>= x2 0) 
(and (>= y2 0) 
(and (>= x3 0) 
(and (>= y3 0) 
(and (>= x4 0) 
(and (>= y4 0) 
(and (>= x5 0) 
(and (>= y5 0) 
(and (>= x6 0) 
(and (>= y6 0) 
(and (>= x7 0) 
(and (>= y7 0) 
(and (>= x8 0) 
(and (>= y8 0) 
(and (>= x9 0) 
(and (>= y9 0) 
(and (>= x10 0) 
(and (>= y10 0) 
(and (>= x11 0) 
(and (>= y11 0) 
(and (>= x12 0) 
(and (>= y12 0) 
(and (>= x13 0) 
(and (>= y13 0) 
(and (>= x14 0) 
(and (>= y14 0) 
(and (>= z 0) 
(and (>= c 0) 
(and (<= (+ x0 0.6128159952) z) 
(and (<= 0.9888968599 y0) 
(and (<= y0 1.0) 
(and (<= x0 (- 4.1609732748 0.6128159952)) 
(and (>= x0 0) 
(and (<= (+ x1 0.3692041263) z) 
(and (<= 0.9658057873 y1) 
(and (<= y1 1.0) 
(and (<= x1 (- 4.1609732748 0.3692041263)) 
(and (>= x1 0) 
(and (<= (+ x2 0.0216451416) z) 
(and (<= 0.945477345 y2) 
(and (<= y2 1.0) 
(and (<= x2 (- 4.1609732748 0.0216451416)) 
(and (>= x2 0) 
(and (<= (+ x3 0.080757006) z) 
(and (<= 0.8408522011 y3) 
(and (<= y3 1.0) 
(and (<= x3 (- 4.1609732748 0.080757006)) 
(and (>= x3 0) 
(and (<= (+ x4 0.9306315619) z) 
(and (<= 0.8297060245 y4) 
(and (<= y4 1.0) 
(and (<= x4 (- 4.1609732748 0.9306315619)) 
(and (>= x4 0) 
(and (<= (+ x5 0.7693734271) z) 
(and (<= 0.7256369554 y5) 
(and (<= y5 1.0) 
(and (<= x5 (- 4.1609732748 0.7693734271)) 
(and (>= x5 0) 
(and (<= (+ x6 0.8168515193) z) 
(and (<= 0.6539008957 y6) 
(and (<= y6 1.0) 
(and (<= x6 (- 4.1609732748 0.8168515193)) 
(and (>= x6 0) 
(and (<= (+ x7 0.0582767548) z) 
(and (<= 0.5931455118 y7) 
(and (<= y7 1.0) 
(and (<= x7 (- 4.1609732748 0.0582767548)) 
(and (>= x7 0) 
(and (<= (+ x8 0.0052198187) z) 
(and (<= 0.5870204581 y8) 
(and (<= y8 1.0) 
(and (<= x8 (- 4.1609732748 0.0052198187)) 
(and (>= x8 0) 
(and (<= (+ x9 0.2218596451) z) 
(and (<= 0.5839992007 y9) 
(and (<= y9 1.0) 
(and (<= x9 (- 4.1609732748 0.2218596451)) 
(and (>= x9 0) 
(and (<= (+ x10 0.2743382788) z) 
(and (<= 0.5161382567 y10) 
(and (<= y10 1.0) 
(and (<= x10 (- 4.1609732748 0.2743382788)) 
(and (>= x10 0) 
(and (<= (+ x11 0.1184955287) z) 
(and (<= 0.456295601 y11) 
(and (<= y11 1.0) 
(and (<= x11 (- 4.1609732748 0.1184955287)) 
(and (>= x11 0) 
(and (<= (+ x12 0.4241337225) z) 
(and (<= 0.3288235523 y12) 
(and (<= y12 1.0) 
(and (<= x12 (- 4.1609732748 0.4241337225)) 
(and (>= x12 0) 
(and (<= (+ x13 0.1425620911) z) 
(and (<= 0.1015020935 y13) 
(and (<= y13 1.0) 
(and (<= x13 (- 4.1609732748 0.1425620911)) 
(and (>= x13 0) 
(and (<= (+ x14 0.1047910647) z) 
(and (<= 0.0523238622 y14) 
(and (<= y14 1.0) 
(and (<= x14 (- 4.1609732748 0.1047910647)) 
(and (>= x14 0) 
(and (<= c 4.1609732748) 
(and (or (<= (+ x0 0.6128159952) x1) (or (<= (+ x1 0.3692041263) x0) (or (>= (- y0 0.9888968599) y1) (or (>= (- y1 0.9658057873) y0))))) 
(and (or (<= (+ x0 0.6128159952) x2) (or (<= (+ x2 0.0216451416) x0) (or (>= (- y0 0.9888968599) y2) (or (>= (- y2 0.945477345) y0))))) 
(and (or (<= (+ x0 0.6128159952) x3) (or (<= (+ x3 0.080757006) x0) (or (>= (- y0 0.9888968599) y3) (or (>= (- y3 0.8408522011) y0))))) 
(and (or (<= (+ x0 0.6128159952) x4) (or (<= (+ x4 0.9306315619) x0) (or (>= (- y0 0.9888968599) y4) (or (>= (- y4 0.8297060245) y0))))) 
(and (or (<= (+ x0 0.6128159952) x5) (or (<= (+ x5 0.7693734271) x0) (or (>= (- y0 0.9888968599) y5) (or (>= (- y5 0.7256369554) y0))))) 
(and (or (<= (+ x0 0.6128159952) x6) (or (<= (+ x6 0.8168515193) x0) (or (>= (- y0 0.9888968599) y6) (or (>= (- y6 0.6539008957) y0))))) 
(and (or (<= (+ x0 0.6128159952) x7) (or (<= (+ x7 0.0582767548) x0) (or (>= (- y0 0.9888968599) y7) (or (>= (- y7 0.5931455118) y0))))) 
(and (or (<= (+ x0 0.6128159952) x8) (or (<= (+ x8 0.0052198187) x0) (or (>= (- y0 0.9888968599) y8) (or (>= (- y8 0.5870204581) y0))))) 
(and (or (<= (+ x0 0.6128159952) x9) (or (<= (+ x9 0.2218596451) x0) (or (>= (- y0 0.9888968599) y9) (or (>= (- y9 0.5839992007) y0))))) 
(and (or (<= (+ x0 0.6128159952) x10) (or (<= (+ x10 0.2743382788) x0) (or (>= (- y0 0.9888968599) y10) (or (>= (- y10 0.5161382567) y0))))) 
(and (or (<= (+ x0 0.6128159952) x11) (or (<= (+ x11 0.1184955287) x0) (or (>= (- y0 0.9888968599) y11) (or (>= (- y11 0.456295601) y0))))) 
(and (or (<= (+ x0 0.6128159952) x12) (or (<= (+ x12 0.4241337225) x0) (or (>= (- y0 0.9888968599) y12) (or (>= (- y12 0.3288235523) y0))))) 
(and (or (<= (+ x0 0.6128159952) x13) (or (<= (+ x13 0.1425620911) x0) (or (>= (- y0 0.9888968599) y13) (or (>= (- y13 0.1015020935) y0))))) 
(and (or (<= (+ x0 0.6128159952) x14) (or (<= (+ x14 0.1047910647) x0) (or (>= (- y0 0.9888968599) y14) (or (>= (- y14 0.0523238622) y0))))) 
(and (or (<= (+ x1 0.3692041263) x2) (or (<= (+ x2 0.0216451416) x1) (or (>= (- y1 0.9658057873) y2) (or (>= (- y2 0.945477345) y1))))) 
(and (or (<= (+ x1 0.3692041263) x3) (or (<= (+ x3 0.080757006) x1) (or (>= (- y1 0.9658057873) y3) (or (>= (- y3 0.8408522011) y1))))) 
(and (or (<= (+ x1 0.3692041263) x4) (or (<= (+ x4 0.9306315619) x1) (or (>= (- y1 0.9658057873) y4) (or (>= (- y4 0.8297060245) y1))))) 
(and (or (<= (+ x1 0.3692041263) x5) (or (<= (+ x5 0.7693734271) x1) (or (>= (- y1 0.9658057873) y5) (or (>= (- y5 0.7256369554) y1))))) 
(and (or (<= (+ x1 0.3692041263) x6) (or (<= (+ x6 0.8168515193) x1) (or (>= (- y1 0.9658057873) y6) (or (>= (- y6 0.6539008957) y1))))) 
(and (or (<= (+ x1 0.3692041263) x7) (or (<= (+ x7 0.0582767548) x1) (or (>= (- y1 0.9658057873) y7) (or (>= (- y7 0.5931455118) y1))))) 
(and (or (<= (+ x1 0.3692041263) x8) (or (<= (+ x8 0.0052198187) x1) (or (>= (- y1 0.9658057873) y8) (or (>= (- y8 0.5870204581) y1))))) 
(and (or (<= (+ x1 0.3692041263) x9) (or (<= (+ x9 0.2218596451) x1) (or (>= (- y1 0.9658057873) y9) (or (>= (- y9 0.5839992007) y1))))) 
(and (or (<= (+ x1 0.3692041263) x10) (or (<= (+ x10 0.2743382788) x1) (or (>= (- y1 0.9658057873) y10) (or (>= (- y10 0.5161382567) y1))))) 
(and (or (<= (+ x1 0.3692041263) x11) (or (<= (+ x11 0.1184955287) x1) (or (>= (- y1 0.9658057873) y11) (or (>= (- y11 0.456295601) y1))))) 
(and (or (<= (+ x1 0.3692041263) x12) (or (<= (+ x12 0.4241337225) x1) (or (>= (- y1 0.9658057873) y12) (or (>= (- y12 0.3288235523) y1))))) 
(and (or (<= (+ x1 0.3692041263) x13) (or (<= (+ x13 0.1425620911) x1) (or (>= (- y1 0.9658057873) y13) (or (>= (- y13 0.1015020935) y1))))) 
(and (or (<= (+ x1 0.3692041263) x14) (or (<= (+ x14 0.1047910647) x1) (or (>= (- y1 0.9658057873) y14) (or (>= (- y14 0.0523238622) y1))))) 
(and (or (<= (+ x2 0.0216451416) x3) (or (<= (+ x3 0.080757006) x2) (or (>= (- y2 0.945477345) y3) (or (>= (- y3 0.8408522011) y2))))) 
(and (or (<= (+ x2 0.0216451416) x4) (or (<= (+ x4 0.9306315619) x2) (or (>= (- y2 0.945477345) y4) (or (>= (- y4 0.8297060245) y2))))) 
(and (or (<= (+ x2 0.0216451416) x5) (or (<= (+ x5 0.7693734271) x2) (or (>= (- y2 0.945477345) y5) (or (>= (- y5 0.7256369554) y2))))) 
(and (or (<= (+ x2 0.0216451416) x6) (or (<= (+ x6 0.8168515193) x2) (or (>= (- y2 0.945477345) y6) (or (>= (- y6 0.6539008957) y2))))) 
(and (or (<= (+ x2 0.0216451416) x7) (or (<= (+ x7 0.0582767548) x2) (or (>= (- y2 0.945477345) y7) (or (>= (- y7 0.5931455118) y2))))) 
(and (or (<= (+ x2 0.0216451416) x8) (or (<= (+ x8 0.0052198187) x2) (or (>= (- y2 0.945477345) y8) (or (>= (- y8 0.5870204581) y2))))) 
(and (or (<= (+ x2 0.0216451416) x9) (or (<= (+ x9 0.2218596451) x2) (or (>= (- y2 0.945477345) y9) (or (>= (- y9 0.5839992007) y2))))) 
(and (or (<= (+ x2 0.0216451416) x10) (or (<= (+ x10 0.2743382788) x2) (or (>= (- y2 0.945477345) y10) (or (>= (- y10 0.5161382567) y2))))) 
(and (or (<= (+ x2 0.0216451416) x11) (or (<= (+ x11 0.1184955287) x2) (or (>= (- y2 0.945477345) y11) (or (>= (- y11 0.456295601) y2))))) 
(and (or (<= (+ x2 0.0216451416) x12) (or (<= (+ x12 0.4241337225) x2) (or (>= (- y2 0.945477345) y12) (or (>= (- y12 0.3288235523) y2))))) 
(and (or (<= (+ x2 0.0216451416) x13) (or (<= (+ x13 0.1425620911) x2) (or (>= (- y2 0.945477345) y13) (or (>= (- y13 0.1015020935) y2))))) 
(and (or (<= (+ x2 0.0216451416) x14) (or (<= (+ x14 0.1047910647) x2) (or (>= (- y2 0.945477345) y14) (or (>= (- y14 0.0523238622) y2))))) 
(and (or (<= (+ x3 0.080757006) x4) (or (<= (+ x4 0.9306315619) x3) (or (>= (- y3 0.8408522011) y4) (or (>= (- y4 0.8297060245) y3))))) 
(and (or (<= (+ x3 0.080757006) x5) (or (<= (+ x5 0.7693734271) x3) (or (>= (- y3 0.8408522011) y5) (or (>= (- y5 0.7256369554) y3))))) 
(and (or (<= (+ x3 0.080757006) x6) (or (<= (+ x6 0.8168515193) x3) (or (>= (- y3 0.8408522011) y6) (or (>= (- y6 0.6539008957) y3))))) 
(and (or (<= (+ x3 0.080757006) x7) (or (<= (+ x7 0.0582767548) x3) (or (>= (- y3 0.8408522011) y7) (or (>= (- y7 0.5931455118) y3))))) 
(and (or (<= (+ x3 0.080757006) x8) (or (<= (+ x8 0.0052198187) x3) (or (>= (- y3 0.8408522011) y8) (or (>= (- y8 0.5870204581) y3))))) 
(and (or (<= (+ x3 0.080757006) x9) (or (<= (+ x9 0.2218596451) x3) (or (>= (- y3 0.8408522011) y9) (or (>= (- y9 0.5839992007) y3))))) 
(and (or (<= (+ x3 0.080757006) x10) (or (<= (+ x10 0.2743382788) x3) (or (>= (- y3 0.8408522011) y10) (or (>= (- y10 0.5161382567) y3))))) 
(and (or (<= (+ x3 0.080757006) x11) (or (<= (+ x11 0.1184955287) x3) (or (>= (- y3 0.8408522011) y11) (or (>= (- y11 0.456295601) y3))))) 
(and (or (<= (+ x3 0.080757006) x12) (or (<= (+ x12 0.4241337225) x3) (or (>= (- y3 0.8408522011) y12) (or (>= (- y12 0.3288235523) y3))))) 
(and (or (<= (+ x3 0.080757006) x13) (or (<= (+ x13 0.1425620911) x3) (or (>= (- y3 0.8408522011) y13) (or (>= (- y13 0.1015020935) y3))))) 
(and (or (<= (+ x3 0.080757006) x14) (or (<= (+ x14 0.1047910647) x3) (or (>= (- y3 0.8408522011) y14) (or (>= (- y14 0.0523238622) y3))))) 
(and (or (<= (+ x4 0.9306315619) x5) (or (<= (+ x5 0.7693734271) x4) (or (>= (- y4 0.8297060245) y5) (or (>= (- y5 0.7256369554) y4))))) 
(and (or (<= (+ x4 0.9306315619) x6) (or (<= (+ x6 0.8168515193) x4) (or (>= (- y4 0.8297060245) y6) (or (>= (- y6 0.6539008957) y4))))) 
(and (or (<= (+ x4 0.9306315619) x7) (or (<= (+ x7 0.0582767548) x4) (or (>= (- y4 0.8297060245) y7) (or (>= (- y7 0.5931455118) y4))))) 
(and (or (<= (+ x4 0.9306315619) x8) (or (<= (+ x8 0.0052198187) x4) (or (>= (- y4 0.8297060245) y8) (or (>= (- y8 0.5870204581) y4))))) 
(and (or (<= (+ x4 0.9306315619) x9) (or (<= (+ x9 0.2218596451) x4) (or (>= (- y4 0.8297060245) y9) (or (>= (- y9 0.5839992007) y4))))) 
(and (or (<= (+ x4 0.9306315619) x10) (or (<= (+ x10 0.2743382788) x4) (or (>= (- y4 0.8297060245) y10) (or (>= (- y10 0.5161382567) y4))))) 
(and (or (<= (+ x4 0.9306315619) x11) (or (<= (+ x11 0.1184955287) x4) (or (>= (- y4 0.8297060245) y11) (or (>= (- y11 0.456295601) y4))))) 
(and (or (<= (+ x4 0.9306315619) x12) (or (<= (+ x12 0.4241337225) x4) (or (>= (- y4 0.8297060245) y12) (or (>= (- y12 0.3288235523) y4))))) 
(and (or (<= (+ x4 0.9306315619) x13) (or (<= (+ x13 0.1425620911) x4) (or (>= (- y4 0.8297060245) y13) (or (>= (- y13 0.1015020935) y4))))) 
(and (or (<= (+ x4 0.9306315619) x14) (or (<= (+ x14 0.1047910647) x4) (or (>= (- y4 0.8297060245) y14) (or (>= (- y14 0.0523238622) y4))))) 
(and (or (<= (+ x5 0.7693734271) x6) (or (<= (+ x6 0.8168515193) x5) (or (>= (- y5 0.7256369554) y6) (or (>= (- y6 0.6539008957) y5))))) 
(and (or (<= (+ x5 0.7693734271) x7) (or (<= (+ x7 0.0582767548) x5) (or (>= (- y5 0.7256369554) y7) (or (>= (- y7 0.5931455118) y5))))) 
(and (or (<= (+ x5 0.7693734271) x8) (or (<= (+ x8 0.0052198187) x5) (or (>= (- y5 0.7256369554) y8) (or (>= (- y8 0.5870204581) y5))))) 
(and (or (<= (+ x5 0.7693734271) x9) (or (<= (+ x9 0.2218596451) x5) (or (>= (- y5 0.7256369554) y9) (or (>= (- y9 0.5839992007) y5))))) 
(and (or (<= (+ x5 0.7693734271) x10) (or (<= (+ x10 0.2743382788) x5) (or (>= (- y5 0.7256369554) y10) (or (>= (- y10 0.5161382567) y5))))) 
(and (or (<= (+ x5 0.7693734271) x11) (or (<= (+ x11 0.1184955287) x5) (or (>= (- y5 0.7256369554) y11) (or (>= (- y11 0.456295601) y5))))) 
(and (or (<= (+ x5 0.7693734271) x12) (or (<= (+ x12 0.4241337225) x5) (or (>= (- y5 0.7256369554) y12) (or (>= (- y12 0.3288235523) y5))))) 
(and (or (<= (+ x5 0.7693734271) x13) (or (<= (+ x13 0.1425620911) x5) (or (>= (- y5 0.7256369554) y13) (or (>= (- y13 0.1015020935) y5))))) 
(and (or (<= (+ x5 0.7693734271) x14) (or (<= (+ x14 0.1047910647) x5) (or (>= (- y5 0.7256369554) y14) (or (>= (- y14 0.0523238622) y5))))) 
(and (or (<= (+ x6 0.8168515193) x7) (or (<= (+ x7 0.0582767548) x6) (or (>= (- y6 0.6539008957) y7) (or (>= (- y7 0.5931455118) y6))))) 
(and (or (<= (+ x6 0.8168515193) x8) (or (<= (+ x8 0.0052198187) x6) (or (>= (- y6 0.6539008957) y8) (or (>= (- y8 0.5870204581) y6))))) 
(and (or (<= (+ x6 0.8168515193) x9) (or (<= (+ x9 0.2218596451) x6) (or (>= (- y6 0.6539008957) y9) (or (>= (- y9 0.5839992007) y6))))) 
(and (or (<= (+ x6 0.8168515193) x10) (or (<= (+ x10 0.2743382788) x6) (or (>= (- y6 0.6539008957) y10) (or (>= (- y10 0.5161382567) y6))))) 
(and (or (<= (+ x6 0.8168515193) x11) (or (<= (+ x11 0.1184955287) x6) (or (>= (- y6 0.6539008957) y11) (or (>= (- y11 0.456295601) y6))))) 
(and (or (<= (+ x6 0.8168515193) x12) (or (<= (+ x12 0.4241337225) x6) (or (>= (- y6 0.6539008957) y12) (or (>= (- y12 0.3288235523) y6))))) 
(and (or (<= (+ x6 0.8168515193) x13) (or (<= (+ x13 0.1425620911) x6) (or (>= (- y6 0.6539008957) y13) (or (>= (- y13 0.1015020935) y6))))) 
(and (or (<= (+ x6 0.8168515193) x14) (or (<= (+ x14 0.1047910647) x6) (or (>= (- y6 0.6539008957) y14) (or (>= (- y14 0.0523238622) y6))))) 
(and (or (<= (+ x7 0.0582767548) x8) (or (<= (+ x8 0.0052198187) x7) (or (>= (- y7 0.5931455118) y8) (or (>= (- y8 0.5870204581) y7))))) 
(and (or (<= (+ x7 0.0582767548) x9) (or (<= (+ x9 0.2218596451) x7) (or (>= (- y7 0.5931455118) y9) (or (>= (- y9 0.5839992007) y7))))) 
(and (or (<= (+ x7 0.0582767548) x10) (or (<= (+ x10 0.2743382788) x7) (or (>= (- y7 0.5931455118) y10) (or (>= (- y10 0.5161382567) y7))))) 
(and (or (<= (+ x7 0.0582767548) x11) (or (<= (+ x11 0.1184955287) x7) (or (>= (- y7 0.5931455118) y11) (or (>= (- y11 0.456295601) y7))))) 
(and (or (<= (+ x7 0.0582767548) x12) (or (<= (+ x12 0.4241337225) x7) (or (>= (- y7 0.5931455118) y12) (or (>= (- y12 0.3288235523) y7))))) 
(and (or (<= (+ x7 0.0582767548) x13) (or (<= (+ x13 0.1425620911) x7) (or (>= (- y7 0.5931455118) y13) (or (>= (- y13 0.1015020935) y7))))) 
(and (or (<= (+ x7 0.0582767548) x14) (or (<= (+ x14 0.1047910647) x7) (or (>= (- y7 0.5931455118) y14) (or (>= (- y14 0.0523238622) y7))))) 
(and (or (<= (+ x8 0.0052198187) x9) (or (<= (+ x9 0.2218596451) x8) (or (>= (- y8 0.5870204581) y9) (or (>= (- y9 0.5839992007) y8))))) 
(and (or (<= (+ x8 0.0052198187) x10) (or (<= (+ x10 0.2743382788) x8) (or (>= (- y8 0.5870204581) y10) (or (>= (- y10 0.5161382567) y8))))) 
(and (or (<= (+ x8 0.0052198187) x11) (or (<= (+ x11 0.1184955287) x8) (or (>= (- y8 0.5870204581) y11) (or (>= (- y11 0.456295601) y8))))) 
(and (or (<= (+ x8 0.0052198187) x12) (or (<= (+ x12 0.4241337225) x8) (or (>= (- y8 0.5870204581) y12) (or (>= (- y12 0.3288235523) y8))))) 
(and (or (<= (+ x8 0.0052198187) x13) (or (<= (+ x13 0.1425620911) x8) (or (>= (- y8 0.5870204581) y13) (or (>= (- y13 0.1015020935) y8))))) 
(and (or (<= (+ x8 0.0052198187) x14) (or (<= (+ x14 0.1047910647) x8) (or (>= (- y8 0.5870204581) y14) (or (>= (- y14 0.0523238622) y8))))) 
(and (or (<= (+ x9 0.2218596451) x10) (or (<= (+ x10 0.2743382788) x9) (or (>= (- y9 0.5839992007) y10) (or (>= (- y10 0.5161382567) y9))))) 
(and (or (<= (+ x9 0.2218596451) x11) (or (<= (+ x11 0.1184955287) x9) (or (>= (- y9 0.5839992007) y11) (or (>= (- y11 0.456295601) y9))))) 
(and (or (<= (+ x9 0.2218596451) x12) (or (<= (+ x12 0.4241337225) x9) (or (>= (- y9 0.5839992007) y12) (or (>= (- y12 0.3288235523) y9))))) 
(and (or (<= (+ x9 0.2218596451) x13) (or (<= (+ x13 0.1425620911) x9) (or (>= (- y9 0.5839992007) y13) (or (>= (- y13 0.1015020935) y9))))) 
(and (or (<= (+ x9 0.2218596451) x14) (or (<= (+ x14 0.1047910647) x9) (or (>= (- y9 0.5839992007) y14) (or (>= (- y14 0.0523238622) y9))))) 
(and (or (<= (+ x10 0.2743382788) x11) (or (<= (+ x11 0.1184955287) x10) (or (>= (- y10 0.5161382567) y11) (or (>= (- y11 0.456295601) y10))))) 
(and (or (<= (+ x10 0.2743382788) x12) (or (<= (+ x12 0.4241337225) x10) (or (>= (- y10 0.5161382567) y12) (or (>= (- y12 0.3288235523) y10))))) 
(and (or (<= (+ x10 0.2743382788) x13) (or (<= (+ x13 0.1425620911) x10) (or (>= (- y10 0.5161382567) y13) (or (>= (- y13 0.1015020935) y10))))) 
(and (or (<= (+ x10 0.2743382788) x14) (or (<= (+ x14 0.1047910647) x10) (or (>= (- y10 0.5161382567) y14) (or (>= (- y14 0.0523238622) y10))))) 
(and (or (<= (+ x11 0.1184955287) x12) (or (<= (+ x12 0.4241337225) x11) (or (>= (- y11 0.456295601) y12) (or (>= (- y12 0.3288235523) y11))))) 
(and (or (<= (+ x11 0.1184955287) x13) (or (<= (+ x13 0.1425620911) x11) (or (>= (- y11 0.456295601) y13) (or (>= (- y13 0.1015020935) y11))))) 
(and (or (<= (+ x11 0.1184955287) x14) (or (<= (+ x14 0.1047910647) x11) (or (>= (- y11 0.456295601) y14) (or (>= (- y14 0.0523238622) y11))))) 
(and (or (<= (+ x12 0.4241337225) x13) (or (<= (+ x13 0.1425620911) x12) (or (>= (- y12 0.3288235523) y13) (or (>= (- y13 0.1015020935) y12))))) 
(and (or (<= (+ x12 0.4241337225) x14) (or (<= (+ x14 0.1047910647) x12) (or (>= (- y12 0.3288235523) y14) (or (>= (- y14 0.0523238622) y12))))) 
(and (or (<= (+ x13 0.1425620911) x14) (or (<= (+ x14 0.1047910647) x13) (or (>= (- y13 0.1015020935) y14) (or (>= (- y14 0.0523238622) y13))))) )))))))))))))))))))))))))))))))))))))))))))))))))))))))))))))))))))))))))))))))))))))))))))))))))))))))))))))))))))))))))))))))))))))))))))))))))))))))))))))))))))))))))))))))))))))))))))))))))))))))))))))))))))))))
(minimize c)
(check-sat)
(get-objectives)
(exit)
